%%% static parameters %%%
timespan = 1;
Fact = [1];
Distr1 = [15];
Distr2 = [20];
Clients_N = [100];
Demand_W = [15];
Lt0 = [4];
Lt1 = [4];
SS_ = [0.85];
DS_D = [20];
K = [200];
MA = [500];
%%% dynamic parameters %%%
lost_ratio_sales_ret_th = 0.01523525675543367;
lost_ratio_sales_ret_w = 26;
lost_ratio_sales_dis_th = 0.002132296095115005;
lost_ratio_sales_dis_w = 85;
lost_ratio_sales_fac_th = 0.02312745567796175;
lost_ratio_sales_fac_w = 22;
stock_customer_MA_mean_relative_th = 0.8458581190315534;
stock_customer_MA_mean_relative_w = 39;
stock_distributor_MA_mean_relative_th = 0.3185623847503878;
stock_distributor_MA_mean_relative_w = 47;
stock_retailer_MA_mean_relative_th = 0.9503982051836359;
stock_retailer_MA_mean_relative_w = 42;
stock_factory_MA_mean_relative_th = 0.0470747114568596;
stock_factory_MA_mean_relative_w = 1;
